(set-option :produce-models true); benchmark generated from python API
(set-info :status unknown)
(declare-fun l_0_0_4 () Real)
(declare-fun l_0_0_1 () Real)
(declare-fun _a_0_ () Real)
(declare-fun l_0_0_5 () Real)
(declare-fun l_0_0_2 () Real)
(declare-fun _a_1_ () Real)
(declare-fun l_0_0_6 () Real)
(declare-fun l_0_0_3 () Real)
(declare-fun _a_2_ () Real)
(declare-fun l_0_1_8 () Real)
(declare-fun l_0_1_7 () Real)
(declare-fun l_0_1_4 () Real)
(declare-fun l_0_1_5 () Real)
(declare-fun l_0_1_1 () Real)
(declare-fun l_0_1_2 () Real)
(declare-fun l_0_1_9 () Real)
(declare-fun l_0_1_6 () Real)
(declare-fun l_0_1_3 () Real)
(declare-fun l_0_2_7 () Real)
(declare-fun l_0_2_4 () Real)
(declare-fun l_0_2_1 () Real)
(declare-fun l_0_2_8 () Real)
(declare-fun l_0_2_5 () Real)
(declare-fun l_0_2_2 () Real)
(declare-fun l_0_2_6 () Real)
(declare-fun l_0_2_3 () Real)
(declare-fun l_0_2_9 () Real)
(assert
 (let ((?x36 (* l_0_0_4 l_0_0_4)))
 (= (- (- _a_0_ (* (* 3.0 l_0_0_1) l_0_0_1)) ?x36) 0.0)))
(assert
 (let ((?x77 (- (- _a_1_ (* (* 6.0 l_0_0_1) l_0_0_2)) (* (* 2.0 l_0_0_1) l_0_0_1))))
 (= (- ?x77 (* (* 2.0 l_0_0_4) l_0_0_5)) 0.0)))
(assert
 (let ((?x115 (* l_0_0_6 l_0_0_6)))
 (let ((?x113 (* l_0_0_5 l_0_0_5)))
 (let ((?x58 (* l_0_0_1 l_0_0_1)))
 (let ((?x109 (- (+ (- _a_2_ (* (* 4.0 l_0_0_1) l_0_0_2)) ?x58) (* (* 3.0 l_0_0_2) l_0_0_2))))
 (= (- (- (- ?x109 (* (* 3.0 l_0_0_3) l_0_0_3)) ?x113) ?x115) 0.0))))))
(assert
 (let ((?x147 (- (* (* 2.0 l_0_0_1) l_0_0_2) (* (* 2.0 l_0_0_2) l_0_0_2))))
 (= (- ?x147 (* (* 2.0 l_0_0_3) l_0_0_3)) 0.0)))
(assert
 (= (+ (* l_0_0_2 l_0_0_2) (* l_0_0_3 l_0_0_3)) 0.0))
(assert
 (>= l_0_0_1 0.0))
(assert
 (>= l_0_0_3 0.0))
(assert
 (>= l_0_0_4 0.0))
(assert
 (>= l_0_0_6 0.0))
(assert
 (let ((?x180 (* l_0_1_4 l_0_1_4)))
 (let ((?x182 (* (/ 3.0 2.0) ?x180)))
 (let ((?x175 (- (* (* (* (- 2.0) _a_0_) l_0_1_1) l_0_1_2) (* (* _a_1_ l_0_1_1) l_0_1_1))))
 (let ((?x186 (- (+ (+ ?x175 (* (* 14.0 l_0_1_4) l_0_1_5)) ?x182) (* (* 2.0 l_0_1_7) l_0_1_8))))
 (= (+ ?x186 7.0) 0.0))))))
(assert
 (let ((?x231 (* l_0_1_9 l_0_1_9)))
 (let ((?x229 (* l_0_1_8 l_0_1_8)))
 (let ((?x226 (* l_0_1_6 l_0_1_6)))
 (let ((?x227 (* 7.0 ?x226)))
 (let ((?x223 (* l_0_1_5 l_0_1_5)))
 (let ((?x224 (* 7.0 ?x223)))
 (let ((?x180 (* l_0_1_4 l_0_1_4)))
 (let ((?x215 (- (* (- _a_0_) (+ (* l_0_1_2 l_0_1_2) (* l_0_1_3 l_0_1_3))) (* (* (* 2.0 _a_1_) l_0_1_1) l_0_1_2))))
 (let ((?x221 (+ (- ?x215 (* (* _a_2_ l_0_1_1) l_0_1_1)) (* (* 3.0 l_0_1_4) l_0_1_5))))
 (= (- (- (- (+ (+ (- ?x221 ?x180) ?x224) ?x227) ?x229) ?x231) 1.0) 0.0)))))))))))
(assert
 (let ((?x276 (* l_0_1_7 l_0_1_7)))
 (let ((?x180 (* l_0_1_4 l_0_1_4)))
 (let ((?x274 (* 7.0 ?x180)))
 (= (- (- (+ (* (* (- _a_0_) l_0_1_1) l_0_1_1) ?x274) ?x276) 10.0) 0.0)))))
(assert
 (let ((?x297 (- (* (- _a_1_) (+ (* l_0_1_2 l_0_1_2) (* l_0_1_3 l_0_1_3))) (* (* (* 2.0 _a_2_) l_0_1_1) l_0_1_2))))
 (let ((?x302 (+ (- ?x297 (* (* 2.0 l_0_1_4) l_0_1_5)) (* (/ 3.0 2.0) (* l_0_1_5 l_0_1_5)))))
 (= (+ ?x302 (* (/ 3.0 2.0) (* l_0_1_6 l_0_1_6))) 0.0))))
(assert
 (let ((?x226 (* l_0_1_6 l_0_1_6)))
 (let ((?x223 (* l_0_1_5 l_0_1_5)))
 (let ((?x330 (- (* (- _a_2_) (+ (* l_0_1_2 l_0_1_2) (* l_0_1_3 l_0_1_3))) ?x223)))
 (= (- ?x330 ?x226) 0.0)))))
(assert
 (>= l_0_1_1 0.0))
(assert
 (>= l_0_1_3 0.0))
(assert
 (>= l_0_1_4 0.0))
(assert
 (>= l_0_1_6 0.0))
(assert
 (>= l_0_1_7 0.0))
(assert
 (>= l_0_1_9 0.0))
(assert
 (let ((?x359 (* l_0_2_7 l_0_2_7)))
 (let ((?x358 (- (+ (* (* (- _a_0_) l_0_2_1) l_0_2_1) _a_0_) (* (* 7.0 l_0_2_4) l_0_2_4))))
 (= (- ?x358 ?x359) 0.0))))
(assert
 (let ((?x381 (* (/ 124.0 125.0) _a_1_)))
 (let ((?x379 (- (* (* (* (- 2.0) _a_0_) l_0_2_1) l_0_2_2) (* (* _a_1_ l_0_2_1) l_0_2_1))))
 (let ((?x388 (- (- (+ ?x379 ?x381) (* (* 14.0 l_0_2_4) l_0_2_5)) (* (* (/ 3.0 2.0) l_0_2_4) l_0_2_4))))
 (= (- ?x388 (* (* 2.0 l_0_2_7) l_0_2_8)) 0.0)))))
(assert
 (let ((?x430 (* (/ 186.0 15625.0) _a_2_)))
 (let ((?x424 (* (/ 1.0 1000.0) _a_1_)))
 (let ((?x425 (- (* (- _a_1_) (+ (* l_0_2_2 l_0_2_2) (* l_0_2_3 l_0_2_3))) ?x424)))
 (let ((?x434 (+ (+ (- ?x425 (* (* (* 2.0 _a_2_) l_0_2_1) l_0_2_2)) ?x430) (* (* 2.0 l_0_2_4) l_0_2_5))))
 (let ((?x440 (- (- ?x434 (* (* (/ 3.0 2.0) l_0_2_5) l_0_2_5)) (* (* (/ 3.0 2.0) l_0_2_6) l_0_2_6))))
 (= ?x440 0.0)))))))
(assert
 (let ((?x502 (* l_0_2_9 l_0_2_9)))
 (let ((?x500 (* l_0_2_8 l_0_2_8)))
 (let ((?x363 (* l_0_2_4 l_0_2_4)))
 (let ((?x488 (* (/ 15376.0 15625.0) _a_2_)))
 (let ((?x482 (* (/ 3.0 500.0) _a_1_)))
 (let ((?x480 (- (* (- _a_0_) (+ (* l_0_2_2 l_0_2_2) (* l_0_2_3 l_0_2_3))) (* (* (* 2.0 _a_1_) l_0_2_1) l_0_2_2))))
 (let ((?x492 (- (+ (- (+ ?x480 ?x482) (* (* _a_2_ l_0_2_1) l_0_2_1)) ?x488) (* (* 3.0 l_0_2_4) l_0_2_5))))
 (let ((?x499 (- (- (+ ?x492 ?x363) (* (* 7.0 l_0_2_5) l_0_2_5)) (* (* 7.0 l_0_2_6) l_0_2_6))))
 (= (- (- ?x499 ?x500) ?x502) 0.0))))))))))
(assert
 (let ((?x466 (* l_0_2_6 l_0_2_6)))
 (let ((?x460 (* l_0_2_5 l_0_2_5)))
 (let ((?x547 (* (/ 487.0 250000.0) _a_2_)))
 (let ((?x548 (- (* (- _a_2_) (+ (* l_0_2_2 l_0_2_2) (* l_0_2_3 l_0_2_3))) ?x547)))
 (= (+ (+ ?x548 ?x460) ?x466) 0.0))))))
(assert
 (= (* (/ 1.0 1000000.0) _a_2_) 0.0))
(assert
 (= (* (- (/ 3.0 250000.0)) _a_2_) 0.0))
(assert
 (>= l_0_2_1 0.0))
(assert
 (>= l_0_2_3 0.0))
(assert
 (>= l_0_2_4 0.0))
(assert
 (>= l_0_2_6 0.0))
(assert
 (>= l_0_2_7 0.0))
(assert
 (>= l_0_2_9 0.0))
(check-sat)
(get-model)